84
120
96	4
95	3
94	7
93	3
92	5
91	4
90	7
89	5
88	2
87	6
86	7
85	3
84	6
83	3
82	6
81	5
80	12
79	5
78	7
77	6
76	5
75	7
74	2
73	1
72	2
71	4
70	1
69	6
68	6
67	5
66	3
64	6
63	6
62	5
61	3
60	9
59	4
58	4
57	3
56	6
55	3
54	2
53	5
52	5
51	6
50	6
49	7
48	3
47	1
46	8
45	3
44	2
43	3
42	6
41	6
40	5
39	4
38	6
37	2
36	7
35	8
34	4
33	4
32	3
31	5
30	3
29	5
28	4
27	2
26	2
25	5
24	3
23	9
22	8
21	5
20	4
19	7
18	4
17	6
16	8
15	5
14	5
13	3
12	4
